10 8 5 4 1200
0.0 0.49 0.0 0.21 3.0 0.27 4.0 0.3 4.0 0.42 2.0 0.43 1.0 0.27 2.0 0.45
4.0 0.22 3.0 0.42 1.0 0.33 2.0 0.39 0.0 0.34 3.0 0.47 1.0 0.27 2.0 0.17
0.0 0.34 1.0 0.25 0.0 0.45 3.0 0.21 3.0 0.27 4.0 0.28 2.0 0.22 1.0 0.39
3.0 0.17 0.0 0.44 0.0 0.48 2.0 0.38 4.0 0.21 1.0 0.43 4.0 0.34 1.0 0.28
1.0 0.22 3.0 0.47 0.0 0.23 2.0 0.4 2.0 0.27 0.0 0.26 4.0 0.16 1.0 0.2
3.0 0.23 0.0 0.28 1.0 0.48 0.0 0.22 2.0 0.25 4.0 0.18 3.0 0.44 2.0 0.33
4.0 0.42 1.0 0.22 2.0 0.43 1.0 0.44 0.0 0.29 4.0 0.3 3.0 0.26 2.0 0.19
2.0 0.19 3.0 0.26 0.0 0.4 0.0 0.27 4.0 0.4 1.0 0.19 4.0 0.39 2.0 0.21
4.0 0.31 1.0 0.38 3.0 0.23 0.0 0.41 2.0 0.48 1.0 0.3 3.0 0.3 4.0 0.23
0.0 0.24 1.0 0.17 4.0 0.4 2.0 0.16 3.0 0.23 4.0 0.37 3.0 0.44 2.0 0.18
